68
150
119	1
118	1
117	1
116	1
115	2
112	1
111	1
110	1
108	2
106	1
105	1
103	1
102	1
100	2
99	1
98	2
97	2
95	1
94	1
93	2
92	1
87	2
85	1
84	1
83	1
79	3
78	1
77	2
70	1
69	1
68	1
67	1
66	1
65	3
63	2
62	2
61	1
60	1
56	1
55	1
54	1
53	2
52	1
51	2
50	1
48	1
47	3
45	2
43	1
42	2
41	1
40	2
39	2
37	1
36	1
35	2
33	1
32	1
31	3
28	1
27	1
26	2
22	1
21	2
19	1
18	3
16	2
15	3
